19 5 19 4 21 1 14 5 14 3 17 4 16 8 17 8 16 8 14 5
21 3 24 4 23 1 21 4 20 0 21 0 14 6 16 3 24 4 23 1 21 4 20 0 21 0 21 7
14 3 17 4 16 0 17 0 16 0 14 0 20 5 21 0 23 0 24 4 23 1 21 4 20 0 21 0
14 6 16 3 12 8 11 8 9 8 8 0 9 0 14 3
14 5 16 3 17 3 16 3 14 3 12 1 13 1 16 3 9 3 14 5 12 1 14 1 12 3 5 3 10 5 9 0 10 0 9 1 10 1 9 3 2 3 7 4 5 0 4 0 3 8



